[[473 461 474 466 477 461 477 477 461 464 464 463 461 463]
 [564 572 595 571 566 572 580 588 572 589 578 580 564 582]
 [564 589 555 602 564 589 552 547 582 589 596 596 547 598]
 [559 541 564 547 540 541 561 550 541 544 544 547 540 548]
 [575 577 573 572 575 577 573 567 584 571 572 577 567 577]
 [593 606 621 622 596 606 580 588 606 602 599 606 580 615]
 [473 474 471 511 480 474 461 466 481 478 478 476 461 476]
 [547 533 543 576 542 533 542 548 538 529 529 537 529 533]
 [738 744 771 749 747 744 732 722 746 742 751 747 722 747]
 [290 291 298 294 290 291 291 290 291 292 290 292 289 289]
 [341 343 354 375 345 343 339 341 343 347 347 342 339 348]
 [246 246 256 250 246 246 245 252 246 246 246 246 245 246]]